Version identifier: 22.1.1.0 | 2022-11-28 | 9160aff4d
CPXPARAM_ClockType                               1
CPXPARAM_Read_DataCheck                          1
CPXPARAM_Threads                                 1
CPXPARAM_TimeLimit                               7200
CPXPARAM_MIP_Tolerances_AbsMIPGap                0
CPXPARAM_MIP_Tolerances_MIPGap                   0
CPXPARAM_MIP_Tolerances_Integrality              0
Tried aggregator 2 times.
MIP Presolve eliminated 488 rows and 0 columns.
MIP Presolve modified 784 coefficients.
Aggregator did 300 substitutions.
Reduced MIP has 1052 rows, 750 columns, and 2838 nonzeros.
Reduced MIP has 750 binaries, 0 generals, 0 SOSs, and 0 indicators.
Presolve time = 0.00 sec. (4.50 ticks)
Found incumbent of value -524.000000 after 0.01 sec. (8.36 ticks)
Probing time = 0.01 sec. (1.35 ticks)
Tried aggregator 1 time.
Detecting symmetries...
MIP Presolve eliminated 100 rows and 0 columns.
Reduced MIP has 952 rows, 750 columns, and 2538 nonzeros.
Reduced MIP has 750 binaries, 0 generals, 0 SOSs, and 0 indicators.
Presolve time = 0.00 sec. (3.05 ticks)
Probing time = 0.01 sec. (1.21 ticks)
Clique table members: 1977.
MIP emphasis: balance optimality and feasibility.
MIP search method: dynamic search.
Parallel mode: none, using 1 thread.
Root relaxation solution time = 0.01 sec. (10.66 ticks)

        Nodes                                         Cuts/
   Node  Left     Objective  IInf  Best Integer    Best Bound    ItCnt     Gap

*     0+    0                         -524.0000      150.0000           128.63%
      0     0      100.0000   264     -524.0000      100.0000      458  119.08%
      0     0      100.0000   371     -524.0000      Cuts: 78      559  119.08%
      0     0      100.0000   323     -524.0000       Cuts: 7      625  119.08%
      0     0      100.0000   343     -524.0000  ZeroHalf: 74      721  119.08%
*     0+    0                          100.0000      100.0000             0.00%
      0     0        cutoff            100.0000      100.0000      721    0.00%
Elapsed time = 0.23 sec. (157.23 ticks, tree = 0.01 MB, solutions = 2)

Zero-half cuts applied:  3

Root node processing (before b&c):
  Real time             =    0.23 sec. (157.27 ticks)
Sequential b&c:
  Real time             =    0.00 sec. (0.00 ticks)
                          ------------
Total (root+branch&cut) =    0.23 sec. (157.27 ticks)
Solution is feasible.

---------------------
@@@ MIP_optimal
>>> Benchmark flat50-6.cnf k 2 OPT 100 TimeCost 0.3316783905029297 TimeSolve 0.24170589447021484 TimeRead 0.0020711421966552734 TimeTrans 0.08790135383605957
